p cnf 593 1575
a 1 2 3 4 5 6 7 8 9 10 11 12 13 14 15 16 17 18 19 20 21 22 23 24 25 26 27 28 29 30 31 32 33 34 35 36 37 38 39 40 41 42 43 44 45 46 47 48 49 50 51 52 53 54 55 56 57 58 59 60 61 62 63 64 0
e 65 66 67 68 69 70 71 72 73 74 75 76 77 78 79 80 81 82 83 84 85 86 87 88 89 90 91 92 93 94 95 96 97 98 99 100 101 102 103 104 105 106 107 108 109 110 111 112 113 114 115 116 117 118 119 120 121 122 123 124 125 126 127 128 129 130 131 132 133 134 135 136 137 138 139 140 141 142 143 144 145 146 147 148 149 150 151 152 153 154 155 156 157 158 159 160 161 162 163 164 165 166 167 168 169 170 171 172 173 174 175 176 177 178 179 180 181 182 183 184 185 186 187 188 189 190 191 192 193 194 195 196 197 198 199 200 201 202 203 204 205 206 207 208 209 210 211 212 213 214 215 216 217 218 219 220 221 222 223 224 225 226 227 228 229 230 231 232 233 234 235 236 237 238 239 240 241 242 243 244 245 246 247 248 249 250 251 252 253 254 255 256 257 258 259 260 261 262 263 264 265 266 267 268 269 270 271 272 273 274 275 276 277 278 279 280 281 282 283 284 285 286 287 288 289 290 291 292 293 294 295 296 297 298 299 300 301 302 303 304 305 306 307 308 309 310 311 312 313 314 315 316 317 318 319 320 321 322 323 324 325 326 327 328 329 330 331 332 333 334 335 336 337 338 339 340 341 342 343 344 345 346 347 348 349 350 351 352 353 354 355 356 357 358 359 360 361 362 363 364 365 366 367 368 369 370 371 372 373 374 375 376 377 378 379 380 381 382 383 384 385 386 387 388 389 390 391 392 393 394 395 396 397 398 399 400 401 402 403 404 405 406 407 408 409 410 411 412 413 414 415 416 417 418 419 420 421 422 423 424 425 426 427 428 429 430 431 432 433 434 435 436 437 438 439 440 441 442 443 444 445 446 447 448 449 450 451 452 453 454 455 456 457 458 459 460 461 462 463 464 465 466 467 468 469 470 471 472 473 474 475 476 477 478 479 480 481 482 483 484 485 486 487 488 489 490 491 492 493 494 495 496 497 498 499 500 501 502 503 504 505 506 507 508 509 510 511 512 513 514 515 516 517 518 519 520 521 522 523 524 525 526 527 528 529 530 531 532 533 534 535 536 537 538 539 540 541 542 543 544 545 546 547 548 549 550 551 552 553 554 555 556 557 558 559 560 561 562 563 564 565 566 567 568 569 570 571 572 573 574 575 576 577 578 579 580 581 582 583 584 585 586 587 588 589 590 591 0
81 65 0
-81 -65 0
82 66 -81 0
-82 81 0
-82 -66 0
83 -82 0
-83 82 0
84 67 -83 0
-84 83 0
-84 -67 0
85 -84 0
-85 84 0
86 68 -85 0
-86 85 0
-86 -68 0
87 -86 0
-87 86 0
88 69 -87 0
-88 87 0
-88 -69 0
89 -88 0
-89 88 0
90 70 -89 0
-90 89 0
-90 -70 0
91 -90 0
-91 90 0
92 71 -91 0
-92 91 0
-92 -71 0
93 -92 0
-93 92 0
94 72 -93 0
-94 93 0
-94 -72 0
95 -94 0
-95 94 0
96 73 -95 0
-96 95 0
-96 -73 0
97 -96 0
-97 96 0
98 74 -97 0
-98 97 0
-98 -74 0
99 -98 0
-99 98 0
100 75 -99 0
-100 99 0
-100 -75 0
101 -100 0
-101 100 0
102 76 -101 0
-102 101 0
-102 -76 0
103 -102 0
-103 102 0
104 77 -103 0
-104 103 0
-104 -77 0
105 -104 0
-105 104 0
106 78 -105 0
-106 105 0
-106 -78 0
107 -106 0
-107 106 0
108 79 -107 0
-108 107 0
-108 -79 0
109 -108 0
-109 108 0
110 80 -109 0
-110 109 0
-110 -80 0
111 -110 0
-111 110 0
112 -80 -111 0
112 80 111 0
-112 -80 111 0
-112 80 -111 0
114 0
-114 -112 -113 0
131 65 -115 0
131 -65 115 0
-131 65 115 0
-131 -65 -115 0
132 -65 -115 0
-132 115 0
-132 65 0
133 -132 0
-133 132 0
134 66 -116 0
134 -66 116 0
-134 66 116 0
-134 -66 -116 0
135 -133 134 0
135 133 -134 0
-135 133 134 0
-135 -133 -134 0
136 -66 -116 0
-136 116 0
-136 66 0
137 -66 -133 0
-137 133 0
-137 66 0
138 -116 -133 0
-138 133 0
-138 116 0
139 -138 0
139 -137 0
139 -136 0
-139 136 137 138 0
140 67 -117 0
140 -67 117 0
-140 67 117 0
-140 -67 -117 0
141 -139 140 0
141 139 -140 0
-141 139 140 0
-141 -139 -140 0
142 -67 -117 0
-142 117 0
-142 67 0
143 -67 -139 0
-143 139 0
-143 67 0
144 -117 -139 0
-144 139 0
-144 117 0
145 -144 0
145 -143 0
145 -142 0
-145 142 143 144 0
146 68 -118 0
146 -68 118 0
-146 68 118 0
-146 -68 -118 0
147 -145 146 0
147 145 -146 0
-147 145 146 0
-147 -145 -146 0
148 -68 -118 0
-148 118 0
-148 68 0
149 -68 -145 0
-149 145 0
-149 68 0
150 -118 -145 0
-150 145 0
-150 118 0
151 -150 0
151 -149 0
151 -148 0
-151 148 149 150 0
152 69 -119 0
152 -69 119 0
-152 69 119 0
-152 -69 -119 0
153 -151 152 0
153 151 -152 0
-153 151 152 0
-153 -151 -152 0
154 -69 -119 0
-154 119 0
-154 69 0
155 -69 -151 0
-155 151 0
-155 69 0
156 -119 -151 0
-156 151 0
-156 119 0
157 -156 0
157 -155 0
157 -154 0
-157 154 155 156 0
158 70 -120 0
158 -70 120 0
-158 70 120 0
-158 -70 -120 0
159 -157 158 0
159 157 -158 0
-159 157 158 0
-159 -157 -158 0
160 -70 -120 0
-160 120 0
-160 70 0
161 -70 -157 0
-161 157 0
-161 70 0
162 -120 -157 0
-162 157 0
-162 120 0
163 -162 0
163 -161 0
163 -160 0
-163 160 161 162 0
164 71 -121 0
164 -71 121 0
-164 71 121 0
-164 -71 -121 0
165 -163 164 0
165 163 -164 0
-165 163 164 0
-165 -163 -164 0
166 -71 -121 0
-166 121 0
-166 71 0
167 -71 -163 0
-167 163 0
-167 71 0
168 -121 -163 0
-168 163 0
-168 121 0
169 -168 0
169 -167 0
169 -166 0
-169 166 167 168 0
170 72 -122 0
170 -72 122 0
-170 72 122 0
-170 -72 -122 0
171 -169 170 0
171 169 -170 0
-171 169 170 0
-171 -169 -170 0
172 -72 -122 0
-172 122 0
-172 72 0
173 -72 -169 0
-173 169 0
-173 72 0
174 -122 -169 0
-174 169 0
-174 122 0
175 -174 0
175 -173 0
175 -172 0
-175 172 173 174 0
176 73 -123 0
176 -73 123 0
-176 73 123 0
-176 -73 -123 0
177 -175 176 0
177 175 -176 0
-177 175 176 0
-177 -175 -176 0
178 -73 -123 0
-178 123 0
-178 73 0
179 -73 -175 0
-179 175 0
-179 73 0
180 -123 -175 0
-180 175 0
-180 123 0
181 -180 0
181 -179 0
181 -178 0
-181 178 179 180 0
182 74 -124 0
182 -74 124 0
-182 74 124 0
-182 -74 -124 0
183 -181 182 0
183 181 -182 0
-183 181 182 0
-183 -181 -182 0
184 -74 -124 0
-184 124 0
-184 74 0
185 -74 -181 0
-185 181 0
-185 74 0
186 -124 -181 0
-186 181 0
-186 124 0
187 -186 0
187 -185 0
187 -184 0
-187 184 185 186 0
188 75 -125 0
188 -75 125 0
-188 75 125 0
-188 -75 -125 0
189 -187 188 0
189 187 -188 0
-189 187 188 0
-189 -187 -188 0
190 -75 -125 0
-190 125 0
-190 75 0
191 -75 -187 0
-191 187 0
-191 75 0
192 -125 -187 0
-192 187 0
-192 125 0
193 -192 0
193 -191 0
193 -190 0
-193 190 191 192 0
194 76 -126 0
194 -76 126 0
-194 76 126 0
-194 -76 -126 0
195 -193 194 0
195 193 -194 0
-195 193 194 0
-195 -193 -194 0
196 -76 -126 0
-196 126 0
-196 76 0
197 -76 -193 0
-197 193 0
-197 76 0
198 -126 -193 0
-198 193 0
-198 126 0
199 -198 0
199 -197 0
199 -196 0
-199 196 197 198 0
200 77 -127 0
200 -77 127 0
-200 77 127 0
-200 -77 -127 0
201 -199 200 0
201 199 -200 0
-201 199 200 0
-201 -199 -200 0
202 -77 -127 0
-202 127 0
-202 77 0
203 -77 -199 0
-203 199 0
-203 77 0
204 -127 -199 0
-204 199 0
-204 127 0
205 -204 0
205 -203 0
205 -202 0
-205 202 203 204 0
206 78 -128 0
206 -78 128 0
-206 78 128 0
-206 -78 -128 0
207 -205 206 0
207 205 -206 0
-207 205 206 0
-207 -205 -206 0
208 -78 -128 0
-208 128 0
-208 78 0
209 -78 -205 0
-209 205 0
-209 78 0
210 -128 -205 0
-210 205 0
-210 128 0
211 -210 0
211 -209 0
211 -208 0
-211 208 209 210 0
212 79 -129 0
212 -79 129 0
-212 79 129 0
-212 -79 -129 0
213 -211 212 0
213 211 -212 0
-213 211 212 0
-213 -211 -212 0
214 -79 -129 0
-214 129 0
-214 79 0
215 -79 -211 0
-215 211 0
-215 79 0
216 -129 -211 0
-216 211 0
-216 129 0
217 -216 0
217 -215 0
217 -214 0
-217 214 215 216 0
218 80 -130 0
218 -80 130 0
-218 80 130 0
-218 -80 -130 0
219 -217 218 0
219 217 -218 0
-219 217 218 0
-219 -217 -218 0
220 -80 -130 0
-220 130 0
-220 80 0
221 -80 -217 0
-221 217 0
-221 80 0
222 -130 -217 0
-222 217 0
-222 130 0
223 -222 0
223 -221 0
223 -220 0
-223 220 221 222 0
224 131 0
-224 -131 0
225 135 -224 0
-225 224 0
-225 -135 0
226 -225 0
-226 225 0
227 141 -226 0
-227 226 0
-227 -141 0
228 -227 0
-228 227 0
229 147 -228 0
-229 228 0
-229 -147 0
230 -229 0
-230 229 0
231 153 -230 0
-231 230 0
-231 -153 0
232 -231 0
-232 231 0
233 159 -232 0
-233 232 0
-233 -159 0
234 -233 0
-234 233 0
235 165 -234 0
-235 234 0
-235 -165 0
236 -235 0
-236 235 0
237 171 -236 0
-237 236 0
-237 -171 0
238 -237 0
-238 237 0
239 177 -238 0
-239 238 0
-239 -177 0
240 -239 0
-240 239 0
241 183 -240 0
-241 240 0
-241 -183 0
242 -241 0
-242 241 0
243 189 -242 0
-243 242 0
-243 -189 0
244 -243 0
-244 243 0
245 195 -244 0
-245 244 0
-245 -195 0
246 -245 0
-246 245 0
247 201 -246 0
-247 246 0
-247 -201 0
248 -247 0
-248 247 0
249 207 -248 0
-249 248 0
-249 -207 0
250 -249 0
-250 249 0
251 213 -250 0
-251 250 0
-251 -213 0
252 -251 0
-252 251 0
253 219 -252 0
-253 252 0
-253 -219 0
254 -253 0
-254 253 0
255 -219 -254 0
255 219 254 0
-255 -219 254 0
-255 219 -254 0
257 0
-257 -255 -256 0
258 1 -65 0
258 -1 65 0
-258 1 65 0
-258 -1 -65 0
259 2 -66 0
259 -2 66 0
-259 2 66 0
-259 -2 -66 0
260 3 -67 0
260 -3 67 0
-260 3 67 0
-260 -3 -67 0
261 4 -68 0
261 -4 68 0
-261 4 68 0
-261 -4 -68 0
262 5 -69 0
262 -5 69 0
-262 5 69 0
-262 -5 -69 0
263 6 -70 0
263 -6 70 0
-263 6 70 0
-263 -6 -70 0
264 7 -71 0
264 -7 71 0
-264 7 71 0
-264 -7 -71 0
265 8 -72 0
265 -8 72 0
-265 8 72 0
-265 -8 -72 0
266 9 -73 0
266 -9 73 0
-266 9 73 0
-266 -9 -73 0
267 10 -74 0
267 -10 74 0
-267 10 74 0
-267 -10 -74 0
268 11 -75 0
268 -11 75 0
-268 11 75 0
-268 -11 -75 0
269 12 -76 0
269 -12 76 0
-269 12 76 0
-269 -12 -76 0
270 13 -77 0
270 -13 77 0
-270 13 77 0
-270 -13 -77 0
271 14 -78 0
271 -14 78 0
-271 14 78 0
-271 -14 -78 0
272 15 -79 0
272 -15 79 0
-272 15 79 0
-272 -15 -79 0
273 16 -80 0
273 -16 80 0
-273 16 80 0
-273 -16 -80 0
274 258 259 260 261 262 263 264 265 266 267 268 269 270 271 272 273 0
-274 -273 0
-274 -272 0
-274 -271 0
-274 -270 0
-274 -269 0
-274 -268 0
-274 -267 0
-274 -266 0
-274 -265 0
-274 -264 0
-274 -263 0
-274 -262 0
-274 -261 0
-274 -260 0
-274 -259 0
-274 -258 0
275 33 -131 0
275 -33 131 0
-275 33 131 0
-275 -33 -131 0
276 34 -135 0
276 -34 135 0
-276 34 135 0
-276 -34 -135 0
277 35 -141 0
277 -35 141 0
-277 35 141 0
-277 -35 -141 0
278 36 -147 0
278 -36 147 0
-278 36 147 0
-278 -36 -147 0
279 37 -153 0
279 -37 153 0
-279 37 153 0
-279 -37 -153 0
280 38 -159 0
280 -38 159 0
-280 38 159 0
-280 -38 -159 0
281 39 -165 0
281 -39 165 0
-281 39 165 0
-281 -39 -165 0
282 40 -171 0
282 -40 171 0
-282 40 171 0
-282 -40 -171 0
283 41 -177 0
283 -41 177 0
-283 41 177 0
-283 -41 -177 0
284 42 -183 0
284 -42 183 0
-284 42 183 0
-284 -42 -183 0
285 43 -189 0
285 -43 189 0
-285 43 189 0
-285 -43 -189 0
286 44 -195 0
286 -44 195 0
-286 44 195 0
-286 -44 -195 0
287 45 -201 0
287 -45 201 0
-287 45 201 0
-287 -45 -201 0
288 46 -207 0
288 -46 207 0
-288 46 207 0
-288 -46 -207 0
289 47 -213 0
289 -47 213 0
-289 47 213 0
-289 -47 -213 0
290 48 -219 0
290 -48 219 0
-290 48 219 0
-290 -48 -219 0
291 275 276 277 278 279 280 281 282 283 284 285 286 287 288 289 290 0
-291 -290 0
-291 -289 0
-291 -288 0
-291 -287 0
-291 -286 0
-291 -285 0
-291 -284 0
-291 -283 0
-291 -282 0
-291 -281 0
-291 -280 0
-291 -279 0
-291 -278 0
-291 -277 0
-291 -276 0
-291 -275 0
292 17 -115 0
292 -17 115 0
-292 17 115 0
-292 -17 -115 0
293 18 -116 0
293 -18 116 0
-293 18 116 0
-293 -18 -116 0
294 19 -117 0
294 -19 117 0
-294 19 117 0
-294 -19 -117 0
295 20 -118 0
295 -20 118 0
-295 20 118 0
-295 -20 -118 0
296 21 -119 0
296 -21 119 0
-296 21 119 0
-296 -21 -119 0
297 22 -120 0
297 -22 120 0
-297 22 120 0
-297 -22 -120 0
298 23 -121 0
298 -23 121 0
-298 23 121 0
-298 -23 -121 0
299 24 -122 0
299 -24 122 0
-299 24 122 0
-299 -24 -122 0
300 25 -123 0
300 -25 123 0
-300 25 123 0
-300 -25 -123 0
301 26 -124 0
301 -26 124 0
-301 26 124 0
-301 -26 -124 0
302 27 -125 0
302 -27 125 0
-302 27 125 0
-302 -27 -125 0
303 28 -126 0
303 -28 126 0
-303 28 126 0
-303 -28 -126 0
304 29 -127 0
304 -29 127 0
-304 29 127 0
-304 -29 -127 0
305 30 -128 0
305 -30 128 0
-305 30 128 0
-305 -30 -128 0
306 31 -129 0
306 -31 129 0
-306 31 129 0
-306 -31 -129 0
307 32 -130 0
307 -32 130 0
-307 32 130 0
-307 -32 -130 0
308 292 293 294 295 296 297 298 299 300 301 302 303 304 305 306 307 0
-308 -307 0
-308 -306 0
-308 -305 0
-308 -304 0
-308 -303 0
-308 -302 0
-308 -301 0
-308 -300 0
-308 -299 0
-308 -298 0
-308 -297 0
-308 -296 0
-308 -295 0
-308 -294 0
-308 -293 0
-308 -292 0
309 49 -115 0
309 -49 115 0
-309 49 115 0
-309 -49 -115 0
310 50 -116 0
310 -50 116 0
-310 50 116 0
-310 -50 -116 0
311 51 -117 0
311 -51 117 0
-311 51 117 0
-311 -51 -117 0
312 52 -118 0
312 -52 118 0
-312 52 118 0
-312 -52 -118 0
313 53 -119 0
313 -53 119 0
-313 53 119 0
-313 -53 -119 0
314 54 -120 0
314 -54 120 0
-314 54 120 0
-314 -54 -120 0
315 55 -121 0
315 -55 121 0
-315 55 121 0
-315 -55 -121 0
316 56 -122 0
316 -56 122 0
-316 56 122 0
-316 -56 -122 0
317 57 -123 0
317 -57 123 0
-317 57 123 0
-317 -57 -123 0
318 58 -124 0
318 -58 124 0
-318 58 124 0
-318 -58 -124 0
319 59 -125 0
319 -59 125 0
-319 59 125 0
-319 -59 -125 0
320 60 -126 0
320 -60 126 0
-320 60 126 0
-320 -60 -126 0
321 61 -127 0
321 -61 127 0
-321 61 127 0
-321 -61 -127 0
322 62 -128 0
322 -62 128 0
-322 62 128 0
-322 -62 -128 0
323 63 -129 0
323 -63 129 0
-323 63 129 0
-323 -63 -129 0
324 64 -130 0
324 -64 130 0
-324 64 130 0
-324 -64 -130 0
325 309 310 311 312 313 314 315 316 317 318 319 320 321 322 323 324 0
-325 -324 0
-325 -323 0
-325 -322 0
-325 -321 0
-325 -320 0
-325 -319 0
-325 -318 0
-325 -317 0
-325 -316 0
-325 -315 0
-325 -314 0
-325 -313 0
-325 -312 0
-325 -311 0
-325 -310 0
-325 -309 0
326 -112 -255 -274 -291 -308 -325 0
-326 325 0
-326 308 0
-326 291 0
-326 274 0
-326 255 0
-326 112 0
359 327 -343 0
-359 -327 0
-359 343 0
360 327 0
360 -343 0
360 -359 0
-360 -327 343 359 0
361 328 -344 0
-361 -328 0
-361 344 0
362 -344 -360 0
-362 360 0
-362 344 0
363 328 -360 0
-363 360 0
-363 -328 0
364 -363 0
364 -362 0
364 -361 0
-364 361 362 363 0
365 329 -345 0
-365 -329 0
-365 345 0
366 -345 -364 0
-366 364 0
-366 345 0
367 329 -364 0
-367 364 0
-367 -329 0
368 -367 0
368 -366 0
368 -365 0
-368 365 366 367 0
369 330 -346 0
-369 -330 0
-369 346 0
370 -346 -368 0
-370 368 0
-370 346 0
371 330 -368 0
-371 368 0
-371 -330 0
372 -371 0
372 -370 0
372 -369 0
-372 369 370 371 0
373 331 -347 0
-373 -331 0
-373 347 0
374 -347 -372 0
-374 372 0
-374 347 0
375 331 -372 0
-375 372 0
-375 -331 0
376 -375 0
376 -374 0
376 -373 0
-376 373 374 375 0
377 332 -348 0
-377 -332 0
-377 348 0
378 -348 -376 0
-378 376 0
-378 348 0
379 332 -376 0
-379 376 0
-379 -332 0
380 -379 0
380 -378 0
380 -377 0
-380 377 378 379 0
381 333 -349 0
-381 -333 0
-381 349 0
382 -349 -380 0
-382 380 0
-382 349 0
383 333 -380 0
-383 380 0
-383 -333 0
384 -383 0
384 -382 0
384 -381 0
-384 381 382 383 0
385 334 -350 0
-385 -334 0
-385 350 0
386 -350 -384 0
-386 384 0
-386 350 0
387 334 -384 0
-387 384 0
-387 -334 0
388 -387 0
388 -386 0
388 -385 0
-388 385 386 387 0
389 335 -351 0
-389 -335 0
-389 351 0
390 -351 -388 0
-390 388 0
-390 351 0
391 335 -388 0
-391 388 0
-391 -335 0
392 -391 0
392 -390 0
392 -389 0
-392 389 390 391 0
393 336 -352 0
-393 -336 0
-393 352 0
394 -352 -392 0
-394 392 0
-394 352 0
395 336 -392 0
-395 392 0
-395 -336 0
396 -395 0
396 -394 0
396 -393 0
-396 393 394 395 0
397 337 -353 0
-397 -337 0
-397 353 0
398 -353 -396 0
-398 396 0
-398 353 0
399 337 -396 0
-399 396 0
-399 -337 0
400 -399 0
400 -398 0
400 -397 0
-400 397 398 399 0
401 338 -354 0
-401 -338 0
-401 354 0
402 -354 -400 0
-402 400 0
-402 354 0
403 338 -400 0
-403 400 0
-403 -338 0
404 -403 0
404 -402 0
404 -401 0
-404 401 402 403 0
405 339 -355 0
-405 -339 0
-405 355 0
406 -355 -404 0
-406 404 0
-406 355 0
407 339 -404 0
-407 404 0
-407 -339 0
408 -407 0
408 -406 0
408 -405 0
-408 405 406 407 0
409 340 -356 0
-409 -340 0
-409 356 0
410 -356 -408 0
-410 408 0
-410 356 0
411 340 -408 0
-411 408 0
-411 -340 0
412 -411 0
412 -410 0
412 -409 0
-412 409 410 411 0
413 341 -357 0
-413 -341 0
-413 357 0
414 -357 -412 0
-414 412 0
-414 357 0
415 341 -412 0
-415 412 0
-415 -341 0
416 -415 0
416 -414 0
416 -413 0
-416 413 414 415 0
417 342 -358 0
-417 -342 0
-417 358 0
418 -358 -416 0
-418 416 0
-418 358 0
419 342 -416 0
-419 416 0
-419 -342 0
420 -419 0
420 -418 0
420 -417 0
-420 417 418 419 0
421 -342 358 0
421 342 -358 0
-421 342 358 0
-421 -342 -358 0
422 -420 -421 0
422 420 421 0
-422 420 -421 0
-422 -420 421 0
424 0
-424 -422 -423 0
457 425 -441 0
-457 -425 0
-457 441 0
458 425 0
458 -441 0
458 -457 0
-458 -425 441 457 0
459 426 -442 0
-459 -426 0
-459 442 0
460 -442 -458 0
-460 458 0
-460 442 0
461 426 -458 0
-461 458 0
-461 -426 0
462 -461 0
462 -460 0
462 -459 0
-462 459 460 461 0
463 427 -443 0
-463 -427 0
-463 443 0
464 -443 -462 0
-464 462 0
-464 443 0
465 427 -462 0
-465 462 0
-465 -427 0
466 -465 0
466 -464 0
466 -463 0
-466 463 464 465 0
467 428 -444 0
-467 -428 0
-467 444 0
468 -444 -466 0
-468 466 0
-468 444 0
469 428 -466 0
-469 466 0
-469 -428 0
470 -469 0
470 -468 0
470 -467 0
-470 467 468 469 0
471 429 -445 0
-471 -429 0
-471 445 0
472 -445 -470 0
-472 470 0
-472 445 0
473 429 -470 0
-473 470 0
-473 -429 0
474 -473 0
474 -472 0
474 -471 0
-474 471 472 473 0
475 430 -446 0
-475 -430 0
-475 446 0
476 -446 -474 0
-476 474 0
-476 446 0
477 430 -474 0
-477 474 0
-477 -430 0
478 -477 0
478 -476 0
478 -475 0
-478 475 476 477 0
479 431 -447 0
-479 -431 0
-479 447 0
480 -447 -478 0
-480 478 0
-480 447 0
481 431 -478 0
-481 478 0
-481 -431 0
482 -481 0
482 -480 0
482 -479 0
-482 479 480 481 0
483 432 -448 0
-483 -432 0
-483 448 0
484 -448 -482 0
-484 482 0
-484 448 0
485 432 -482 0
-485 482 0
-485 -432 0
486 -485 0
486 -484 0
486 -483 0
-486 483 484 485 0
487 433 -449 0
-487 -433 0
-487 449 0
488 -449 -486 0
-488 486 0
-488 449 0
489 433 -486 0
-489 486 0
-489 -433 0
490 -489 0
490 -488 0
490 -487 0
-490 487 488 489 0
491 434 -450 0
-491 -434 0
-491 450 0
492 -450 -490 0
-492 490 0
-492 450 0
493 434 -490 0
-493 490 0
-493 -434 0
494 -493 0
494 -492 0
494 -491 0
-494 491 492 493 0
495 435 -451 0
-495 -435 0
-495 451 0
496 -451 -494 0
-496 494 0
-496 451 0
497 435 -494 0
-497 494 0
-497 -435 0
498 -497 0
498 -496 0
498 -495 0
-498 495 496 497 0
499 436 -452 0
-499 -436 0
-499 452 0
500 -452 -498 0
-500 498 0
-500 452 0
501 436 -498 0
-501 498 0
-501 -436 0
502 -501 0
502 -500 0
502 -499 0
-502 499 500 501 0
503 437 -453 0
-503 -437 0
-503 453 0
504 -453 -502 0
-504 502 0
-504 453 0
505 437 -502 0
-505 502 0
-505 -437 0
506 -505 0
506 -504 0
506 -503 0
-506 503 504 505 0
507 438 -454 0
-507 -438 0
-507 454 0
508 -454 -506 0
-508 506 0
-508 454 0
509 438 -506 0
-509 506 0
-509 -438 0
510 -509 0
510 -508 0
510 -507 0
-510 507 508 509 0
511 439 -455 0
-511 -439 0
-511 455 0
512 -455 -510 0
-512 510 0
-512 455 0
513 439 -510 0
-513 510 0
-513 -439 0
514 -513 0
514 -512 0
514 -511 0
-514 511 512 513 0
515 440 -456 0
-515 -440 0
-515 456 0
516 -456 -514 0
-516 514 0
-516 456 0
517 440 -514 0
-517 514 0
-517 -440 0
518 -517 0
518 -516 0
518 -515 0
-518 515 516 517 0
519 -440 456 0
519 440 -456 0
-519 440 456 0
-519 -440 -456 0
520 -518 -519 0
520 518 519 0
-520 518 -519 0
-520 -518 519 0
522 0
-522 -520 -521 0
523 -326 0
523 -422 -520 0
-523 520 0
-523 422 0
524 1 -33 0
524 -1 33 0
-524 1 33 0
-524 -1 -33 0
525 2 -34 0
525 -2 34 0
-525 2 34 0
-525 -2 -34 0
526 3 -35 0
526 -3 35 0
-526 3 35 0
-526 -3 -35 0
527 4 -36 0
527 -4 36 0
-527 4 36 0
-527 -4 -36 0
528 5 -37 0
528 -5 37 0
-528 5 37 0
-528 -5 -37 0
529 6 -38 0
529 -6 38 0
-529 6 38 0
-529 -6 -38 0
530 7 -39 0
530 -7 39 0
-530 7 39 0
-530 -7 -39 0
531 8 -40 0
531 -8 40 0
-531 8 40 0
-531 -8 -40 0
532 9 -41 0
532 -9 41 0
-532 9 41 0
-532 -9 -41 0
533 10 -42 0
533 -10 42 0
-533 10 42 0
-533 -10 -42 0
534 11 -43 0
534 -11 43 0
-534 11 43 0
-534 -11 -43 0
535 12 -44 0
535 -12 44 0
-535 12 44 0
-535 -12 -44 0
536 13 -45 0
536 -13 45 0
-536 13 45 0
-536 -13 -45 0
537 14 -46 0
537 -14 46 0
-537 14 46 0
-537 -14 -46 0
538 15 -47 0
538 -15 47 0
-538 15 47 0
-538 -15 -47 0
539 16 -48 0
539 -16 48 0
-539 16 48 0
-539 -16 -48 0
540 524 525 526 527 528 529 530 531 532 533 534 535 536 537 538 539 0
-540 -539 0
-540 -538 0
-540 -537 0
-540 -536 0
-540 -535 0
-540 -534 0
-540 -533 0
-540 -532 0
-540 -531 0
-540 -530 0
-540 -529 0
-540 -528 0
-540 -527 0
-540 -526 0
-540 -525 0
-540 -524 0
541 327 -343 0
541 -327 343 0
-541 327 343 0
-541 -327 -343 0
542 328 -344 0
542 -328 344 0
-542 328 344 0
-542 -328 -344 0
543 329 -345 0
543 -329 345 0
-543 329 345 0
-543 -329 -345 0
544 330 -346 0
544 -330 346 0
-544 330 346 0
-544 -330 -346 0
545 331 -347 0
545 -331 347 0
-545 331 347 0
-545 -331 -347 0
546 332 -348 0
546 -332 348 0
-546 332 348 0
-546 -332 -348 0
547 333 -349 0
547 -333 349 0
-547 333 349 0
-547 -333 -349 0
548 334 -350 0
548 -334 350 0
-548 334 350 0
-548 -334 -350 0
549 335 -351 0
549 -335 351 0
-549 335 351 0
-549 -335 -351 0
550 336 -352 0
550 -336 352 0
-550 336 352 0
-550 -336 -352 0
551 337 -353 0
551 -337 353 0
-551 337 353 0
-551 -337 -353 0
552 338 -354 0
552 -338 354 0
-552 338 354 0
-552 -338 -354 0
553 339 -355 0
553 -339 355 0
-553 339 355 0
-553 -339 -355 0
554 340 -356 0
554 -340 356 0
-554 340 356 0
-554 -340 -356 0
555 341 -357 0
555 -341 357 0
-555 341 357 0
-555 -341 -357 0
556 342 -358 0
556 -342 358 0
-556 342 358 0
-556 -342 -358 0
557 -540 0
557 541 542 543 544 545 546 547 548 549 550 551 552 553 554 555 556 0
-557 -556 0
-557 -555 0
-557 -554 0
-557 -553 0
-557 -552 0
-557 -551 0
-557 -550 0
-557 -549 0
-557 -548 0
-557 -547 0
-557 -546 0
-557 -545 0
-557 -544 0
-557 -543 0
-557 -542 0
-557 -541 0
558 17 -49 0
558 -17 49 0
-558 17 49 0
-558 -17 -49 0
559 18 -50 0
559 -18 50 0
-559 18 50 0
-559 -18 -50 0
560 19 -51 0
560 -19 51 0
-560 19 51 0
-560 -19 -51 0
561 20 -52 0
561 -20 52 0
-561 20 52 0
-561 -20 -52 0
562 21 -53 0
562 -21 53 0
-562 21 53 0
-562 -21 -53 0
563 22 -54 0
563 -22 54 0
-563 22 54 0
-563 -22 -54 0
564 23 -55 0
564 -23 55 0
-564 23 55 0
-564 -23 -55 0
565 24 -56 0
565 -24 56 0
-565 24 56 0
-565 -24 -56 0
566 25 -57 0
566 -25 57 0
-566 25 57 0
-566 -25 -57 0
567 26 -58 0
567 -26 58 0
-567 26 58 0
-567 -26 -58 0
568 27 -59 0
568 -27 59 0
-568 27 59 0
-568 -27 -59 0
569 28 -60 0
569 -28 60 0
-569 28 60 0
-569 -28 -60 0
570 29 -61 0
570 -29 61 0
-570 29 61 0
-570 -29 -61 0
571 30 -62 0
571 -30 62 0
-571 30 62 0
-571 -30 -62 0
572 31 -63 0
572 -31 63 0
-572 31 63 0
-572 -31 -63 0
573 32 -64 0
573 -32 64 0
-573 32 64 0
-573 -32 -64 0
574 558 559 560 561 562 563 564 565 566 567 568 569 570 571 572 573 0
-574 -573 0
-574 -572 0
-574 -571 0
-574 -570 0
-574 -569 0
-574 -568 0
-574 -567 0
-574 -566 0
-574 -565 0
-574 -564 0
-574 -563 0
-574 -562 0
-574 -561 0
-574 -560 0
-574 -559 0
-574 -558 0
575 425 -441 0
575 -425 441 0
-575 425 441 0
-575 -425 -441 0
576 426 -442 0
576 -426 442 0
-576 426 442 0
-576 -426 -442 0
577 427 -443 0
577 -427 443 0
-577 427 443 0
-577 -427 -443 0
578 428 -444 0
578 -428 444 0
-578 428 444 0
-578 -428 -444 0
579 429 -445 0
579 -429 445 0
-579 429 445 0
-579 -429 -445 0
580 430 -446 0
580 -430 446 0
-580 430 446 0
-580 -430 -446 0
581 431 -447 0
581 -431 447 0
-581 431 447 0
-581 -431 -447 0
582 432 -448 0
582 -432 448 0
-582 432 448 0
-582 -432 -448 0
583 433 -449 0
583 -433 449 0
-583 433 449 0
-583 -433 -449 0
584 434 -450 0
584 -434 450 0
-584 434 450 0
-584 -434 -450 0
585 435 -451 0
585 -435 451 0
-585 435 451 0
-585 -435 -451 0
586 436 -452 0
586 -436 452 0
-586 436 452 0
-586 -436 -452 0
587 437 -453 0
587 -437 453 0
-587 437 453 0
-587 -437 -453 0
588 438 -454 0
588 -438 454 0
-588 438 454 0
-588 -438 -454 0
589 439 -455 0
589 -439 455 0
-589 439 455 0
-589 -439 -455 0
590 440 -456 0
590 -440 456 0
-590 440 456 0
-590 -440 -456 0
591 -574 0
591 575 576 577 578 579 580 581 582 583 584 585 586 587 588 589 590 0
-591 -590 0
-591 -589 0
-591 -588 0
-591 -587 0
-591 -586 0
-591 -585 0
-591 -584 0
-591 -583 0
-591 -582 0
-591 -581 0
-591 -580 0
-591 -579 0
-591 -578 0
-591 -577 0
-591 -576 0
-591 -575 0
